\ Insertion Sort as LP
Minimize
 obj: x1 + x2 + x3 + x4 + x5
Subject To
 c1: x1 <= x2
 c2: x2 <= x3
 c3: x3 <= x4
 c4: x4 <= x5
 c5: x1 + x2 + x3 + x4 + x5 = 15
Bounds
 0 <= x1
 0 <= x2
 0 <= x3
 0 <= x4
 0 <= x5
End
